c File: flat175_3_0.col
c
c SOURCE: Joseph Culberson (joe@cs.ualberta.ca)
c DESCRIPTION: Quasi-random coloring problem
c              generated with flatness = 0
c                             probability = 0.041
c                             known coloring = 3
c                             random seed = 1039
c              Creation Date:  Wed Feb 24 10:55:07 1999
c Maximum degree = 8 Minimum degree = 1
c COLOR VERIFICATION: Using the permuted order
c under simple greedy yields the specified
c coloring number
c Color = 3 specified partitions = 3
c p edge 175 417
c cnf created by edge2cnf
p cnf 525 1951
-1 -2 0
-1 -3 0
-2 -3 0
1 2 3 0
-4 -5 0
-4 -6 0
-5 -6 0
4 5 6 0
-7 -8 0
-7 -9 0
-8 -9 0
7 8 9 0
-10 -11 0
-10 -12 0
-11 -12 0
10 11 12 0
-13 -14 0
-13 -15 0
-14 -15 0
13 14 15 0
-16 -17 0
-16 -18 0
-17 -18 0
16 17 18 0
-19 -20 0
-19 -21 0
-20 -21 0
19 20 21 0
-22 -23 0
-22 -24 0
-23 -24 0
22 23 24 0
-25 -26 0
-25 -27 0
-26 -27 0
25 26 27 0
-28 -29 0
-28 -30 0
-29 -30 0
28 29 30 0
-31 -32 0
-31 -33 0
-32 -33 0
31 32 33 0
-34 -35 0
-34 -36 0
-35 -36 0
34 35 36 0
-37 -38 0
-37 -39 0
-38 -39 0
37 38 39 0
-40 -41 0
-40 -42 0
-41 -42 0
40 41 42 0
-43 -44 0
-43 -45 0
-44 -45 0
43 44 45 0
-46 -47 0
-46 -48 0
-47 -48 0
46 47 48 0
-49 -50 0
-49 -51 0
-50 -51 0
49 50 51 0
-52 -53 0
-52 -54 0
-53 -54 0
52 53 54 0
-55 -56 0
-55 -57 0
-56 -57 0
55 56 57 0
-58 -59 0
-58 -60 0
-59 -60 0
58 59 60 0
-61 -62 0
-61 -63 0
-62 -63 0
61 62 63 0
-64 -65 0
-64 -66 0
-65 -66 0
64 65 66 0
-67 -68 0
-67 -69 0
-68 -69 0
67 68 69 0
-70 -71 0
-70 -72 0
-71 -72 0
70 71 72 0
-73 -74 0
-73 -75 0
-74 -75 0
73 74 75 0
-76 -77 0
-76 -78 0
-77 -78 0
76 77 78 0
-79 -80 0
-79 -81 0
-80 -81 0
79 80 81 0
-82 -83 0
-82 -84 0
-83 -84 0
82 83 84 0
-85 -86 0
-85 -87 0
-86 -87 0
85 86 87 0
-88 -89 0
-88 -90 0
-89 -90 0
88 89 90 0
-91 -92 0
-91 -93 0
-92 -93 0
91 92 93 0
-94 -95 0
-94 -96 0
-95 -96 0
94 95 96 0
-97 -98 0
-97 -99 0
-98 -99 0
97 98 99 0
-100 -101 0
-100 -102 0
-101 -102 0
100 101 102 0
-103 -104 0
-103 -105 0
-104 -105 0
103 104 105 0
-106 -107 0
-106 -108 0
-107 -108 0
106 107 108 0
-109 -110 0
-109 -111 0
-110 -111 0
109 110 111 0
-112 -113 0
-112 -114 0
-113 -114 0
112 113 114 0
-115 -116 0
-115 -117 0
-116 -117 0
115 116 117 0
-118 -119 0
-118 -120 0
-119 -120 0
118 119 120 0
-121 -122 0
-121 -123 0
-122 -123 0
121 122 123 0
-124 -125 0
-124 -126 0
-125 -126 0
124 125 126 0
-127 -128 0
-127 -129 0
-128 -129 0
127 128 129 0
-130 -131 0
-130 -132 0
-131 -132 0
130 131 132 0
-133 -134 0
-133 -135 0
-134 -135 0
133 134 135 0
-136 -137 0
-136 -138 0
-137 -138 0
136 137 138 0
-139 -140 0
-139 -141 0
-140 -141 0
139 140 141 0
-142 -143 0
-142 -144 0
-143 -144 0
142 143 144 0
-145 -146 0
-145 -147 0
-146 -147 0
145 146 147 0
-148 -149 0
-148 -150 0
-149 -150 0
148 149 150 0
-151 -152 0
-151 -153 0
-152 -153 0
151 152 153 0
-154 -155 0
-154 -156 0
-155 -156 0
154 155 156 0
-157 -158 0
-157 -159 0
-158 -159 0
157 158 159 0
-160 -161 0
-160 -162 0
-161 -162 0
160 161 162 0
-163 -164 0
-163 -165 0
-164 -165 0
163 164 165 0
-166 -167 0
-166 -168 0
-167 -168 0
166 167 168 0
-169 -170 0
-169 -171 0
-170 -171 0
169 170 171 0
-172 -173 0
-172 -174 0
-173 -174 0
172 173 174 0
-175 -176 0
-175 -177 0
-176 -177 0
175 176 177 0
-178 -179 0
-178 -180 0
-179 -180 0
178 179 180 0
-181 -182 0
-181 -183 0
-182 -183 0
181 182 183 0
-184 -185 0
-184 -186 0
-185 -186 0
184 185 186 0
-187 -188 0
-187 -189 0
-188 -189 0
187 188 189 0
-190 -191 0
-190 -192 0
-191 -192 0
190 191 192 0
-193 -194 0
-193 -195 0
-194 -195 0
193 194 195 0
-196 -197 0
-196 -198 0
-197 -198 0
196 197 198 0
-199 -200 0
-199 -201 0
-200 -201 0
199 200 201 0
-202 -203 0
-202 -204 0
-203 -204 0
202 203 204 0
-205 -206 0
-205 -207 0
-206 -207 0
205 206 207 0
-208 -209 0
-208 -210 0
-209 -210 0
208 209 210 0
-211 -212 0
-211 -213 0
-212 -213 0
211 212 213 0
-214 -215 0
-214 -216 0
-215 -216 0
214 215 216 0
-217 -218 0
-217 -219 0
-218 -219 0
217 218 219 0
-220 -221 0
-220 -222 0
-221 -222 0
220 221 222 0
-223 -224 0
-223 -225 0
-224 -225 0
223 224 225 0
-226 -227 0
-226 -228 0
-227 -228 0
226 227 228 0
-229 -230 0
-229 -231 0
-230 -231 0
229 230 231 0
-232 -233 0
-232 -234 0
-233 -234 0
232 233 234 0
-235 -236 0
-235 -237 0
-236 -237 0
235 236 237 0
-238 -239 0
-238 -240 0
-239 -240 0
238 239 240 0
-241 -242 0
-241 -243 0
-242 -243 0
241 242 243 0
-244 -245 0
-244 -246 0
-245 -246 0
244 245 246 0
-247 -248 0
-247 -249 0
-248 -249 0
247 248 249 0
-250 -251 0
-250 -252 0
-251 -252 0
250 251 252 0
-253 -254 0
-253 -255 0
-254 -255 0
253 254 255 0
-256 -257 0
-256 -258 0
-257 -258 0
256 257 258 0
-259 -260 0
-259 -261 0
-260 -261 0
259 260 261 0
-262 -263 0
-262 -264 0
-263 -264 0
262 263 264 0
-265 -266 0
-265 -267 0
-266 -267 0
265 266 267 0
-268 -269 0
-268 -270 0
-269 -270 0
268 269 270 0
-271 -272 0
-271 -273 0
-272 -273 0
271 272 273 0
-274 -275 0
-274 -276 0
-275 -276 0
274 275 276 0
-277 -278 0
-277 -279 0
-278 -279 0
277 278 279 0
-280 -281 0
-280 -282 0
-281 -282 0
280 281 282 0
-283 -284 0
-283 -285 0
-284 -285 0
283 284 285 0
-286 -287 0
-286 -288 0
-287 -288 0
286 287 288 0
-289 -290 0
-289 -291 0
-290 -291 0
289 290 291 0
-292 -293 0
-292 -294 0
-293 -294 0
292 293 294 0
-295 -296 0
-295 -297 0
-296 -297 0
295 296 297 0
-298 -299 0
-298 -300 0
-299 -300 0
298 299 300 0
-301 -302 0
-301 -303 0
-302 -303 0
301 302 303 0
-304 -305 0
-304 -306 0
-305 -306 0
304 305 306 0
-307 -308 0
-307 -309 0
-308 -309 0
307 308 309 0
-310 -311 0
-310 -312 0
-311 -312 0
310 311 312 0
-313 -314 0
-313 -315 0
-314 -315 0
313 314 315 0
-316 -317 0
-316 -318 0
-317 -318 0
316 317 318 0
-319 -320 0
-319 -321 0
-320 -321 0
319 320 321 0
-322 -323 0
-322 -324 0
-323 -324 0
322 323 324 0
-325 -326 0
-325 -327 0
-326 -327 0
325 326 327 0
-328 -329 0
-328 -330 0
-329 -330 0
328 329 330 0
-331 -332 0
-331 -333 0
-332 -333 0
331 332 333 0
-334 -335 0
-334 -336 0
-335 -336 0
334 335 336 0
-337 -338 0
-337 -339 0
-338 -339 0
337 338 339 0
-340 -341 0
-340 -342 0
-341 -342 0
340 341 342 0
-343 -344 0
-343 -345 0
-344 -345 0
343 344 345 0
-346 -347 0
-346 -348 0
-347 -348 0
346 347 348 0
-349 -350 0
-349 -351 0
-350 -351 0
349 350 351 0
-352 -353 0
-352 -354 0
-353 -354 0
352 353 354 0
-355 -356 0
-355 -357 0
-356 -357 0
355 356 357 0
-358 -359 0
-358 -360 0
-359 -360 0
358 359 360 0
-361 -362 0
-361 -363 0
-362 -363 0
361 362 363 0
-364 -365 0
-364 -366 0
-365 -366 0
364 365 366 0
-367 -368 0
-367 -369 0
-368 -369 0
367 368 369 0
-370 -371 0
-370 -372 0
-371 -372 0
370 371 372 0
-373 -374 0
-373 -375 0
-374 -375 0
373 374 375 0
-376 -377 0
-376 -378 0
-377 -378 0
376 377 378 0
-379 -380 0
-379 -381 0
-380 -381 0
379 380 381 0
-382 -383 0
-382 -384 0
-383 -384 0
382 383 384 0
-385 -386 0
-385 -387 0
-386 -387 0
385 386 387 0
-388 -389 0
-388 -390 0
-389 -390 0
388 389 390 0
-391 -392 0
-391 -393 0
-392 -393 0
391 392 393 0
-394 -395 0
-394 -396 0
-395 -396 0
394 395 396 0
-397 -398 0
-397 -399 0
-398 -399 0
397 398 399 0
-400 -401 0
-400 -402 0
-401 -402 0
400 401 402 0
-403 -404 0
-403 -405 0
-404 -405 0
403 404 405 0
-406 -407 0
-406 -408 0
-407 -408 0
406 407 408 0
-409 -410 0
-409 -411 0
-410 -411 0
409 410 411 0
-412 -413 0
-412 -414 0
-413 -414 0
412 413 414 0
-415 -416 0
-415 -417 0
-416 -417 0
415 416 417 0
-418 -419 0
-418 -420 0
-419 -420 0
418 419 420 0
-421 -422 0
-421 -423 0
-422 -423 0
421 422 423 0
-424 -425 0
-424 -426 0
-425 -426 0
424 425 426 0
-427 -428 0
-427 -429 0
-428 -429 0
427 428 429 0
-430 -431 0
-430 -432 0
-431 -432 0
430 431 432 0
-433 -434 0
-433 -435 0
-434 -435 0
433 434 435 0
-436 -437 0
-436 -438 0
-437 -438 0
436 437 438 0
-439 -440 0
-439 -441 0
-440 -441 0
439 440 441 0
-442 -443 0
-442 -444 0
-443 -444 0
442 443 444 0
-445 -446 0
-445 -447 0
-446 -447 0
445 446 447 0
-448 -449 0
-448 -450 0
-449 -450 0
448 449 450 0
-451 -452 0
-451 -453 0
-452 -453 0
451 452 453 0
-454 -455 0
-454 -456 0
-455 -456 0
454 455 456 0
-457 -458 0
-457 -459 0
-458 -459 0
457 458 459 0
-460 -461 0
-460 -462 0
-461 -462 0
460 461 462 0
-463 -464 0
-463 -465 0
-464 -465 0
463 464 465 0
-466 -467 0
-466 -468 0
-467 -468 0
466 467 468 0
-469 -470 0
-469 -471 0
-470 -471 0
469 470 471 0
-472 -473 0
-472 -474 0
-473 -474 0
472 473 474 0
-475 -476 0
-475 -477 0
-476 -477 0
475 476 477 0
-478 -479 0
-478 -480 0
-479 -480 0
478 479 480 0
-481 -482 0
-481 -483 0
-482 -483 0
481 482 483 0
-484 -485 0
-484 -486 0
-485 -486 0
484 485 486 0
-487 -488 0
-487 -489 0
-488 -489 0
487 488 489 0
-490 -491 0
-490 -492 0
-491 -492 0
490 491 492 0
-493 -494 0
-493 -495 0
-494 -495 0
493 494 495 0
-496 -497 0
-496 -498 0
-497 -498 0
496 497 498 0
-499 -500 0
-499 -501 0
-500 -501 0
499 500 501 0
-502 -503 0
-502 -504 0
-503 -504 0
502 503 504 0
-505 -506 0
-505 -507 0
-506 -507 0
505 506 507 0
-508 -509 0
-508 -510 0
-509 -510 0
508 509 510 0
-511 -512 0
-511 -513 0
-512 -513 0
511 512 513 0
-514 -515 0
-514 -516 0
-515 -516 0
514 515 516 0
-517 -518 0
-517 -519 0
-518 -519 0
517 518 519 0
-520 -521 0
-520 -522 0
-521 -522 0
520 521 522 0
-523 -524 0
-523 -525 0
-524 -525 0
523 524 525 0
-304 -1 0
-305 -2 0
-306 -3 0
-397 -1 0
-398 -2 0
-399 -3 0
-418 -1 0
-419 -2 0
-420 -3 0
-451 -1 0
-452 -2 0
-453 -3 0
-355 -4 0
-356 -5 0
-357 -6 0
-457 -4 0
-458 -5 0
-459 -6 0
-136 -7 0
-137 -8 0
-138 -9 0
-301 -7 0
-302 -8 0
-303 -9 0
-355 -7 0
-356 -8 0
-357 -9 0
-496 -7 0
-497 -8 0
-498 -9 0
-124 -10 0
-125 -11 0
-126 -12 0
-505 -10 0
-506 -11 0
-507 -12 0
-79 -13 0
-80 -14 0
-81 -15 0
-175 -13 0
-176 -14 0
-177 -15 0
-178 -13 0
-179 -14 0
-180 -15 0
-406 -13 0
-407 -14 0
-408 -15 0
-484 -13 0
-485 -14 0
-486 -15 0
-73 -16 0
-74 -17 0
-75 -18 0
-259 -16 0
-260 -17 0
-261 -18 0
-268 -16 0
-269 -17 0
-270 -18 0
-412 -16 0
-413 -17 0
-414 -18 0
-79 -19 0
-80 -20 0
-81 -21 0
-265 -19 0
-266 -20 0
-267 -21 0
-274 -19 0
-275 -20 0
-276 -21 0
-379 -19 0
-380 -20 0
-381 -21 0
-385 -19 0
-386 -20 0
-387 -21 0
-433 -19 0
-434 -20 0
-435 -21 0
-169 -22 0
-170 -23 0
-171 -24 0
-355 -22 0
-356 -23 0
-357 -24 0
-367 -22 0
-368 -23 0
-369 -24 0
-445 -22 0
-446 -23 0
-447 -24 0
-139 -25 0
-140 -26 0
-141 -27 0
-142 -25 0
-143 -26 0
-144 -27 0
-286 -25 0
-287 -26 0
-288 -27 0
-295 -25 0
-296 -26 0
-297 -27 0
-370 -25 0
-371 -26 0
-372 -27 0
-127 -28 0
-128 -29 0
-129 -30 0
-217 -28 0
-218 -29 0
-219 -30 0
-235 -28 0
-236 -29 0
-237 -30 0
-247 -28 0
-248 -29 0
-249 -30 0
-355 -28 0
-356 -29 0
-357 -30 0
-364 -28 0
-365 -29 0
-366 -30 0
-100 -31 0
-101 -32 0
-102 -33 0
-124 -31 0
-125 -32 0
-126 -33 0
-163 -31 0
-164 -32 0
-165 -33 0
-244 -31 0
-245 -32 0
-246 -33 0
-295 -31 0
-296 -32 0
-297 -33 0
-319 -31 0
-320 -32 0
-321 -33 0
-166 -34 0
-167 -35 0
-168 -36 0
-169 -34 0
-170 -35 0
-171 -36 0
-199 -34 0
-200 -35 0
-201 -36 0
-220 -34 0
-221 -35 0
-222 -36 0
-430 -34 0
-431 -35 0
-432 -36 0
-511 -34 0
-512 -35 0
-513 -36 0
-154 -37 0
-155 -38 0
-156 -39 0
-193 -37 0
-194 -38 0
-195 -39 0
-301 -37 0
-302 -38 0
-303 -39 0
-118 -40 0
-119 -41 0
-120 -42 0
-121 -40 0
-122 -41 0
-123 -42 0
-142 -40 0
-143 -41 0
-144 -42 0
-385 -40 0
-386 -41 0
-387 -42 0
-406 -40 0
-407 -41 0
-408 -42 0
-433 -40 0
-434 -41 0
-435 -42 0
-523 -40 0
-524 -41 0
-525 -42 0
-154 -43 0
-155 -44 0
-156 -45 0
-340 -43 0
-341 -44 0
-342 -45 0
-382 -43 0
-383 -44 0
-384 -45 0
-439 -43 0
-440 -44 0
-441 -45 0
-517 -43 0
-518 -44 0
-519 -45 0
-91 -46 0
-92 -47 0
-93 -48 0
-205 -46 0
-206 -47 0
-207 -48 0
-250 -46 0
-251 -47 0
-252 -48 0
-331 -46 0
-332 -47 0
-333 -48 0
-340 -46 0
-341 -47 0
-342 -48 0
-421 -46 0
-422 -47 0
-423 -48 0
-94 -49 0
-95 -50 0
-96 -51 0
-409 -49 0
-410 -50 0
-411 -51 0
-520 -49 0
-521 -50 0
-522 -51 0
-175 -52 0
-176 -53 0
-177 -54 0
-235 -52 0
-236 -53 0
-237 -54 0
-241 -52 0
-242 -53 0
-243 -54 0
-334 -52 0
-335 -53 0
-336 -54 0
-424 -52 0
-425 -53 0
-426 -54 0
-466 -52 0
-467 -53 0
-468 -54 0
-472 -52 0
-473 -53 0
-474 -54 0
-325 -55 0
-326 -56 0
-327 -57 0
-340 -55 0
-341 -56 0
-342 -57 0
-382 -55 0
-383 -56 0
-384 -57 0
-385 -55 0
-386 -56 0
-387 -57 0
-478 -55 0
-479 -56 0
-480 -57 0
-157 -58 0
-158 -59 0
-159 -60 0
-181 -61 0
-182 -62 0
-183 -63 0
-328 -61 0
-329 -62 0
-330 -63 0
-469 -61 0
-470 -62 0
-471 -63 0
-481 -61 0
-482 -62 0
-483 -63 0
-127 -64 0
-128 -65 0
-129 -66 0
-157 -64 0
-158 -65 0
-159 -66 0
-169 -64 0
-170 -65 0
-171 -66 0
-208 -64 0
-209 -65 0
-210 -66 0
-220 -64 0
-221 -65 0
-222 -66 0
-406 -64 0
-407 -65 0
-408 -66 0
-82 -67 0
-83 -68 0
-84 -69 0
-127 -67 0
-128 -68 0
-129 -69 0
-250 -67 0
-251 -68 0
-252 -69 0
-427 -67 0
-428 -68 0
-429 -69 0
-190 -70 0
-191 -71 0
-192 -72 0
-277 -70 0
-278 -71 0
-279 -72 0
-289 -70 0
-290 -71 0
-291 -72 0
-331 -70 0
-332 -71 0
-333 -72 0
-367 -70 0
-368 -71 0
-369 -72 0
-403 -70 0
-404 -71 0
-405 -72 0
-463 -70 0
-464 -71 0
-465 -72 0
-106 -73 0
-107 -74 0
-108 -75 0
-307 -73 0
-308 -74 0
-309 -75 0
-331 -73 0
-332 -74 0
-333 -75 0
-469 -73 0
-470 -74 0
-471 -75 0
-184 -76 0
-185 -77 0
-186 -78 0
-199 -76 0
-200 -77 0
-201 -78 0
-283 -76 0
-284 -77 0
-285 -78 0
-295 -76 0
-296 -77 0
-297 -78 0
-469 -76 0
-470 -77 0
-471 -78 0
-88 -79 0
-89 -80 0
-90 -81 0
-238 -79 0
-239 -80 0
-240 -81 0
-307 -79 0
-308 -80 0
-309 -81 0
-448 -79 0
-449 -80 0
-450 -81 0
-97 -82 0
-98 -83 0
-99 -84 0
-136 -82 0
-137 -83 0
-138 -84 0
-211 -82 0
-212 -83 0
-213 -84 0
-445 -82 0
-446 -83 0
-447 -84 0
-268 -85 0
-269 -86 0
-270 -87 0
-421 -85 0
-422 -86 0
-423 -87 0
-436 -85 0
-437 -86 0
-438 -87 0
-496 -85 0
-497 -86 0
-498 -87 0
-226 -88 0
-227 -89 0
-228 -90 0
-229 -88 0
-230 -89 0
-231 -90 0
-289 -88 0
-290 -89 0
-291 -90 0
-325 -88 0
-326 -89 0
-327 -90 0
-160 -91 0
-161 -92 0
-162 -93 0
-169 -91 0
-170 -92 0
-171 -93 0
-352 -91 0
-353 -92 0
-354 -93 0
-412 -91 0
-413 -92 0
-414 -93 0
-229 -94 0
-230 -95 0
-231 -96 0
-235 -94 0
-236 -95 0
-237 -96 0
-292 -94 0
-293 -95 0
-294 -96 0
-340 -94 0
-341 -95 0
-342 -96 0
-499 -94 0
-500 -95 0
-501 -96 0
-247 -97 0
-248 -98 0
-249 -99 0
-277 -97 0
-278 -98 0
-279 -99 0
-319 -97 0
-320 -98 0
-321 -99 0
-343 -97 0
-344 -98 0
-345 -99 0
-424 -97 0
-425 -98 0
-426 -99 0
-475 -97 0
-476 -98 0
-477 -99 0
-259 -103 0
-260 -104 0
-261 -105 0
-301 -103 0
-302 -104 0
-303 -105 0
-451 -103 0
-452 -104 0
-453 -105 0
-355 -106 0
-356 -107 0
-357 -108 0
-376 -106 0
-377 -107 0
-378 -108 0
-142 -109 0
-143 -110 0
-144 -111 0
-370 -109 0
-371 -110 0
-372 -111 0
-496 -109 0
-497 -110 0
-498 -111 0
-145 -112 0
-146 -113 0
-147 -114 0
-196 -112 0
-197 -113 0
-198 -114 0
-262 -112 0
-263 -113 0
-264 -114 0
-400 -112 0
-401 -113 0
-402 -114 0
-445 -112 0
-446 -113 0
-447 -114 0
-466 -112 0
-467 -113 0
-468 -114 0
-205 -115 0
-206 -116 0
-207 -117 0
-295 -115 0
-296 -116 0
-297 -117 0
-349 -115 0
-350 -116 0
-351 -117 0
-445 -115 0
-446 -116 0
-447 -117 0
-478 -115 0
-479 -116 0
-480 -117 0
-487 -115 0
-488 -116 0
-489 -117 0
-502 -115 0
-503 -116 0
-504 -117 0
-274 -118 0
-275 -119 0
-276 -120 0
-313 -118 0
-314 -119 0
-315 -120 0
-427 -118 0
-428 -119 0
-429 -120 0
-142 -121 0
-143 -122 0
-144 -123 0
-205 -121 0
-206 -122 0
-207 -123 0
-388 -121 0
-389 -122 0
-390 -123 0
-394 -121 0
-395 -122 0
-396 -123 0
-421 -121 0
-422 -122 0
-423 -123 0
-166 -124 0
-167 -125 0
-168 -126 0
-256 -124 0
-257 -125 0
-258 -126 0
-442 -124 0
-443 -125 0
-444 -126 0
-265 -127 0
-266 -128 0
-267 -129 0
-514 -127 0
-515 -128 0
-516 -129 0
-214 -130 0
-215 -131 0
-216 -132 0
-361 -130 0
-362 -131 0
-363 -132 0
-163 -133 0
-164 -134 0
-165 -135 0
-202 -133 0
-203 -134 0
-204 -135 0
-265 -133 0
-266 -134 0
-267 -135 0
-352 -133 0
-353 -134 0
-354 -135 0
-502 -133 0
-503 -134 0
-504 -135 0
-310 -136 0
-311 -137 0
-312 -138 0
-331 -136 0
-332 -137 0
-333 -138 0
-475 -136 0
-476 -137 0
-477 -138 0
-487 -136 0
-488 -137 0
-489 -138 0
-316 -139 0
-317 -140 0
-318 -141 0
-382 -139 0
-383 -140 0
-384 -141 0
-448 -139 0
-449 -140 0
-450 -141 0
-346 -142 0
-347 -143 0
-348 -144 0
-280 -145 0
-281 -146 0
-282 -147 0
-283 -145 0
-284 -146 0
-285 -147 0
-325 -145 0
-326 -146 0
-327 -147 0
-379 -145 0
-380 -146 0
-381 -147 0
-511 -145 0
-512 -146 0
-513 -147 0
-415 -148 0
-416 -149 0
-417 -150 0
-499 -148 0
-500 -149 0
-501 -150 0
-439 -151 0
-440 -152 0
-441 -153 0
-196 -154 0
-197 -155 0
-198 -156 0
-211 -154 0
-212 -155 0
-213 -156 0
-379 -154 0
-380 -155 0
-381 -156 0
-292 -157 0
-293 -158 0
-294 -159 0
-307 -157 0
-308 -158 0
-309 -159 0
-424 -157 0
-425 -158 0
-426 -159 0
-364 -160 0
-365 -161 0
-366 -162 0
-442 -160 0
-443 -161 0
-444 -162 0
-454 -160 0
-455 -161 0
-456 -162 0
-352 -163 0
-353 -164 0
-354 -165 0
-403 -163 0
-404 -164 0
-405 -165 0
-442 -163 0
-443 -164 0
-444 -165 0
-169 -166 0
-170 -167 0
-171 -168 0
-388 -166 0
-389 -167 0
-390 -168 0
-502 -166 0
-503 -167 0
-504 -168 0
-271 -169 0
-272 -170 0
-273 -171 0
-196 -172 0
-197 -173 0
-198 -174 0
-265 -172 0
-266 -173 0
-267 -174 0
-337 -172 0
-338 -173 0
-339 -174 0
-346 -172 0
-347 -173 0
-348 -174 0
-412 -172 0
-413 -173 0
-414 -174 0
-430 -172 0
-431 -173 0
-432 -174 0
-382 -175 0
-383 -176 0
-384 -177 0
-370 -178 0
-371 -179 0
-372 -180 0
-415 -178 0
-416 -179 0
-417 -180 0
-427 -178 0
-428 -179 0
-429 -180 0
-481 -178 0
-482 -179 0
-483 -180 0
-274 -181 0
-275 -182 0
-276 -183 0
-280 -181 0
-281 -182 0
-282 -183 0
-304 -181 0
-305 -182 0
-306 -183 0
-316 -181 0
-317 -182 0
-318 -183 0
-472 -181 0
-473 -182 0
-474 -183 0
-187 -184 0
-188 -185 0
-189 -186 0
-220 -184 0
-221 -185 0
-222 -186 0
-256 -184 0
-257 -185 0
-258 -186 0
-283 -184 0
-284 -185 0
-285 -186 0
-328 -184 0
-329 -185 0
-330 -186 0
-343 -184 0
-344 -185 0
-345 -186 0
-205 -187 0
-206 -188 0
-207 -189 0
-280 -187 0
-281 -188 0
-282 -189 0
-442 -187 0
-443 -188 0
-444 -189 0
-493 -187 0
-494 -188 0
-495 -189 0
-244 -190 0
-245 -191 0
-246 -192 0
-307 -193 0
-308 -194 0
-309 -195 0
-337 -193 0
-338 -194 0
-339 -195 0
-370 -193 0
-371 -194 0
-372 -195 0
-502 -193 0
-503 -194 0
-504 -195 0
-292 -196 0
-293 -197 0
-294 -198 0
-223 -199 0
-224 -200 0
-225 -201 0
-235 -199 0
-236 -200 0
-237 -201 0
-238 -199 0
-239 -200 0
-240 -201 0
-262 -199 0
-263 -200 0
-264 -201 0
-487 -199 0
-488 -200 0
-489 -201 0
-523 -202 0
-524 -203 0
-525 -204 0
-442 -205 0
-443 -206 0
-444 -207 0
-268 -208 0
-269 -209 0
-270 -210 0
-397 -208 0
-398 -209 0
-399 -210 0
-217 -211 0
-218 -212 0
-219 -213 0
-358 -211 0
-359 -212 0
-360 -213 0
-391 -211 0
-392 -212 0
-393 -213 0
-406 -211 0
-407 -212 0
-408 -213 0
-433 -211 0
-434 -212 0
-435 -213 0
-433 -214 0
-434 -215 0
-435 -216 0
-235 -217 0
-236 -218 0
-237 -219 0
-355 -217 0
-356 -218 0
-357 -219 0
-508 -217 0
-509 -218 0
-510 -219 0
-244 -220 0
-245 -221 0
-246 -222 0
-397 -220 0
-398 -221 0
-399 -222 0
-253 -223 0
-254 -224 0
-255 -225 0
-373 -223 0
-374 -224 0
-375 -225 0
-436 -223 0
-437 -224 0
-438 -225 0
-499 -223 0
-500 -224 0
-501 -225 0
-292 -226 0
-293 -227 0
-294 -228 0
-370 -226 0
-371 -227 0
-372 -228 0
-475 -226 0
-476 -227 0
-477 -228 0
-487 -226 0
-488 -227 0
-489 -228 0
-337 -229 0
-338 -230 0
-339 -231 0
-460 -229 0
-461 -230 0
-462 -231 0
-487 -229 0
-488 -230 0
-489 -231 0
-517 -229 0
-518 -230 0
-519 -231 0
-319 -232 0
-320 -233 0
-321 -234 0
-334 -235 0
-335 -236 0
-336 -237 0
-481 -235 0
-482 -236 0
-483 -237 0
-322 -238 0
-323 -239 0
-324 -240 0
-460 -238 0
-461 -239 0
-462 -240 0
-346 -241 0
-347 -242 0
-348 -243 0
-430 -241 0
-431 -242 0
-432 -243 0
-496 -241 0
-497 -242 0
-498 -243 0
-322 -244 0
-323 -245 0
-324 -246 0
-364 -244 0
-365 -245 0
-366 -246 0
-310 -247 0
-311 -248 0
-312 -249 0
-367 -247 0
-368 -248 0
-369 -249 0
-433 -247 0
-434 -248 0
-435 -249 0
-514 -247 0
-515 -248 0
-516 -249 0
-304 -250 0
-305 -251 0
-306 -252 0
-334 -253 0
-335 -254 0
-336 -255 0
-373 -253 0
-374 -254 0
-375 -255 0
-388 -253 0
-389 -254 0
-390 -255 0
-433 -259 0
-434 -260 0
-435 -261 0
-439 -259 0
-440 -260 0
-441 -261 0
-457 -259 0
-458 -260 0
-459 -261 0
-325 -262 0
-326 -263 0
-327 -264 0
-433 -262 0
-434 -263 0
-435 -264 0
-298 -265 0
-299 -266 0
-300 -267 0
-349 -265 0
-350 -266 0
-351 -267 0
-412 -265 0
-413 -266 0
-414 -267 0
-421 -265 0
-422 -266 0
-423 -267 0
-310 -271 0
-311 -272 0
-312 -273 0
-400 -271 0
-401 -272 0
-402 -273 0
-352 -274 0
-353 -275 0
-354 -276 0
-391 -274 0
-392 -275 0
-393 -276 0
-298 -277 0
-299 -278 0
-300 -279 0
-379 -277 0
-380 -278 0
-381 -279 0
-385 -277 0
-386 -278 0
-387 -279 0
-394 -277 0
-395 -278 0
-396 -279 0
-427 -277 0
-428 -278 0
-429 -279 0
-349 -280 0
-350 -281 0
-351 -282 0
-379 -283 0
-380 -284 0
-381 -285 0
-412 -283 0
-413 -284 0
-414 -285 0
-463 -283 0
-464 -284 0
-465 -285 0
-319 -295 0
-320 -296 0
-321 -297 0
-343 -295 0
-344 -296 0
-345 -297 0
-463 -295 0
-464 -296 0
-465 -297 0
-484 -295 0
-485 -296 0
-486 -297 0
-328 -301 0
-329 -302 0
-330 -303 0
-415 -301 0
-416 -302 0
-417 -303 0
-451 -301 0
-452 -302 0
-453 -303 0
-403 -307 0
-404 -308 0
-405 -309 0
-439 -307 0
-440 -308 0
-441 -309 0
-349 -310 0
-350 -311 0
-351 -312 0
-382 -310 0
-383 -311 0
-384 -312 0
-328 -313 0
-329 -314 0
-330 -315 0
-469 -313 0
-470 -314 0
-471 -315 0
-499 -313 0
-500 -314 0
-501 -315 0
-424 -316 0
-425 -317 0
-426 -318 0
-412 -319 0
-413 -320 0
-414 -321 0
-415 -319 0
-416 -320 0
-417 -321 0
-490 -322 0
-491 -323 0
-492 -324 0
-493 -322 0
-494 -323 0
-495 -324 0
-505 -322 0
-506 -323 0
-507 -324 0
-394 -325 0
-395 -326 0
-396 -327 0
-397 -328 0
-398 -329 0
-399 -330 0
-478 -328 0
-479 -329 0
-480 -330 0
-391 -331 0
-392 -332 0
-393 -333 0
-457 -331 0
-458 -332 0
-459 -333 0
-466 -331 0
-467 -332 0
-468 -333 0
-430 -334 0
-431 -335 0
-432 -336 0
-364 -337 0
-365 -338 0
-366 -339 0
-418 -337 0
-419 -338 0
-420 -339 0
-391 -340 0
-392 -341 0
-393 -342 0
-451 -340 0
-452 -341 0
-453 -342 0
-346 -343 0
-347 -344 0
-348 -345 0
-352 -343 0
-353 -344 0
-354 -345 0
-361 -343 0
-362 -344 0
-363 -345 0
-508 -343 0
-509 -344 0
-510 -345 0
-508 -346 0
-509 -347 0
-510 -348 0
-373 -349 0
-374 -350 0
-375 -351 0
-433 -352 0
-434 -353 0
-435 -354 0
-448 -352 0
-449 -353 0
-450 -354 0
-514 -352 0
-515 -353 0
-516 -354 0
-508 -355 0
-509 -356 0
-510 -357 0
-502 -358 0
-503 -359 0
-504 -360 0
-376 -361 0
-377 -362 0
-378 -363 0
-379 -361 0
-380 -362 0
-381 -363 0
-484 -361 0
-485 -362 0
-486 -363 0
-499 -361 0
-500 -362 0
-501 -363 0
-520 -361 0
-521 -362 0
-522 -363 0
-430 -364 0
-431 -365 0
-432 -366 0
-445 -367 0
-446 -368 0
-447 -369 0
-448 -367 0
-449 -368 0
-450 -369 0
-478 -367 0
-479 -368 0
-480 -369 0
-496 -370 0
-497 -371 0
-498 -372 0
-460 -376 0
-461 -377 0
-462 -378 0
-466 -376 0
-467 -377 0
-468 -378 0
-496 -376 0
-497 -377 0
-498 -378 0
-496 -385 0
-497 -386 0
-498 -387 0
-397 -388 0
-398 -389 0
-399 -390 0
-427 -388 0
-428 -389 0
-429 -390 0
-409 -391 0
-410 -392 0
-411 -393 0
-457 -391 0
-458 -392 0
-459 -393 0
-445 -394 0
-446 -395 0
-447 -396 0
-496 -394 0
-497 -395 0
-498 -396 0
-412 -400 0
-413 -401 0
-414 -402 0
-511 -400 0
-512 -401 0
-513 -402 0
-424 -403 0
-425 -404 0
-426 -405 0
-478 -403 0
-479 -404 0
-480 -405 0
-436 -409 0
-437 -410 0
-438 -411 0
-466 -415 0
-467 -416 0
-468 -417 0
-469 -415 0
-470 -416 0
-471 -417 0
-514 -415 0
-515 -416 0
-516 -417 0
-454 -418 0
-455 -419 0
-456 -420 0
-523 -418 0
-524 -419 0
-525 -420 0
-520 -439 0
-521 -440 0
-522 -441 0
-460 -442 0
-461 -443 0
-462 -444 0
-490 -442 0
-491 -443 0
-492 -444 0
-472 -454 0
-473 -455 0
-474 -456 0
-514 -454 0
-515 -455 0
-516 -456 0
-463 -457 0
-464 -458 0
-465 -459 0
-469 -457 0
-470 -458 0
-471 -459 0
-487 -457 0
-488 -458 0
-489 -459 0
-484 -460 0
-485 -461 0
-486 -462 0
-499 -466 0
-500 -467 0
-501 -468 0
-517 -466 0
-518 -467 0
-519 -468 0
-478 -472 0
-479 -473 0
-480 -474 0
-502 -472 0
-503 -473 0
-504 -474 0
-502 -481 0
-503 -482 0
-504 -483 0
-502 -484 0
-503 -485 0
-504 -486 0
-523 -493 0
-524 -494 0
-525 -495 0
